nNurses = 113;
nHours = 37;
minHours = 4;
maxHours = 11;
maxConsec = 9;
maxPresence = 11;
demand = [29, 26, 23, 21, 23, 28, 33, 31, 29, 24, 19, 21, 26, 21, 16, 21, 24, 20, 18, 16, 19, 24, 23, 20, 20, 17, 17, 20, 17, 22, 25, 26, 31, 26, 28, 27, 26];
